decision_x1=[0,7];
decision_x2=[0,7];
decision_x3=[0,7];
decision_x4=[0,7];
decision_x5=[0,7];
decision_x6=[0,7];
decision_x7=[0,7];
decision_x8=[0,7];
decision_x9=[0,7];
decision_x10=[0,7];
decision_x11=[0,7];
decision_x12=[0,7];
decision_x13=[0,7];
decision_x14=[0,7];
decision_x15=[0,7];
decision_x16=[0,7];
decision_x17=[0,7];
decision_x18=[0,7];
random_y1=[0,7];
random_y2=[0,7];
random_y3=[0,7];
random_y4=[0,7];
random_y5=[0,7];
random_y6=[0,7];
random_y7=[0,7];
random_y8=[0,7];
constraint_x2_x1=[
0,0,4.7|
0,1,9.9|
0,2,7.9|
0,3,0.6|
0,4,9.4|
0,5,8.1|
0,6,7.2|
0,7,3.4|
1,0,9|
1,1,5.1|
1,2,0.55|
1,3,9.1|
1,4,9.4|
1,5,8.7|
1,6,2.8|
1,7,9.3|
2,0,9.3|
2,1,3.1|
2,2,0.93|
2,3,3.4|
2,4,9.4|
2,5,8.2|
2,6,0.74|
2,7,7.9|
3,0,3.9|
3,1,8.2|
3,2,7.2|
3,3,5.6|
3,4,3.5|
3,5,7.1|
3,6,7.7|
3,7,1.7|
4,0,3.5|
4,1,7.5|
4,2,6.6|
4,3,9|
4,4,6.7|
4,5,7.5|
4,6,6|
4,7,10|
5,0,4.6|
5,1,8.5|
5,2,8.7|
5,3,9.1|
5,4,8.2|
5,5,2.3|
5,6,3.9|
5,7,1.6|
6,0,4.2|
6,1,4.3|
6,2,10|
6,3,1|
6,4,7.9|
6,5,0.27|
6,6,6.3|
6,7,5.3|
7,0,5.6|
7,1,2.5|
7,2,4|
7,3,0.6|
7,4,2.8|
7,5,3.7|
7,6,1.7|
7,7,0.31|
];
constraint_x3_x2=[
0,0,0.34|
0,1,2.8|
0,2,1.1|
0,3,6.9|
0,4,8.7|
0,5,6.1|
0,6,5.8|
0,7,0.39|
1,0,9.7|
1,1,0.66|
1,2,3.3|
1,3,4.1|
1,4,7.8|
1,5,8.1|
1,6,9|
1,7,8.8|
2,0,6.9|
2,1,7.5|
2,2,8.7|
2,3,4|
2,4,9.6|
2,5,6.3|
2,6,6.2|
2,7,0.49|
3,0,2.7|
3,1,6.9|
3,2,0.67|
3,3,6.9|
3,4,3.3|
3,5,6.8|
3,6,7.6|
3,7,3.8|
4,0,4.5|
4,1,9.1|
4,2,9.6|
4,3,0.95|
4,4,5.1|
4,5,2.6|
4,6,3.9|
4,7,3.6|
5,0,5.1|
5,1,0.11|
5,2,7.6|
5,3,3.8|
5,4,9.4|
5,5,0.13|
5,6,4.4|
5,7,0.39|
6,0,5|
6,1,7.4|
6,2,3.7|
6,3,6.7|
6,4,7.9|
6,5,1.9|
6,6,0.64|
6,7,7.4|
7,0,9.8|
7,1,3.1|
7,2,8.9|
7,3,8.1|
7,4,0.9|
7,5,2.8|
7,6,4.8|
7,7,5.3|
];
constraint_x4_x3=[
0,0,9.2|
0,1,4|
0,2,2.2|
0,3,1.5|
0,4,3.8|
0,5,5.6|
0,6,5.2|
0,7,7.1|
1,0,7.7|
1,1,5|
1,2,8.9|
1,3,9.9|
1,4,6.9|
1,5,9.7|
1,6,8.6|
1,7,3.2|
2,0,4.1|
2,1,6.2|
2,2,3.6|
2,3,7.6|
2,4,7.7|
2,5,8.7|
2,6,9.6|
2,7,6.6|
3,0,1.1|
3,1,4.5|
3,2,8|
3,3,5.8|
3,4,7|
3,5,2.8|
3,6,1.9|
3,7,0.17|
4,0,7.7|
4,1,7.3|
4,2,8.9|
4,3,2.6|
4,4,2.1|
4,5,1.1|
4,6,8.5|
4,7,3.5|
5,0,7.6|
5,1,5.3|
5,2,8.1|
5,3,9.3|
5,4,6.5|
5,5,3.2|
5,6,8.8|
5,7,5.5|
6,0,8.9|
6,1,3.9|
6,2,8.7|
6,3,1.5|
6,4,8|
6,5,1.1|
6,6,1.8|
6,7,0.82|
7,0,2.1|
7,1,8.9|
7,2,1.9|
7,3,7|
7,4,4.6|
7,5,9.6|
7,6,9.1|
7,7,2.1|
];
constraint_x5_x1=[
0,0,9.3|
0,1,5.1|
0,2,2.8|
0,3,8.4|
0,4,8.2|
0,5,1.4|
0,6,6.1|
0,7,1.5|
1,0,9.7|
1,1,0.49|
1,2,1.1|
1,3,7.7|
1,4,6|
1,5,5.6|
1,6,2.1|
1,7,3.1|
2,0,8.8|
2,1,10|
2,2,2.5|
2,3,5.1|
2,4,2.8|
2,5,6.5|
2,6,1.7|
2,7,6|
3,0,5.1|
3,1,4.9|
3,2,9.1|
3,3,4.6|
3,4,3.5|
3,5,4.9|
3,6,8.7|
3,7,1.7|
4,0,9.4|
4,1,6.7|
4,2,1.5|
4,3,6.4|
4,4,7.3|
4,5,9.7|
4,6,0.16|
4,7,0.74|
5,0,8|
5,1,3.9|
5,2,5.8|
5,3,6.3|
5,4,7.5|
5,5,0.76|
5,6,5.6|
5,7,5.2|
6,0,0.15|
6,1,9.8|
6,2,3.8|
6,3,5.6|
6,4,0.5|
6,5,4.4|
6,6,5.6|
6,7,2.4|
7,0,4.3|
7,1,2.1|
7,2,9.8|
7,3,5.6|
7,4,7.1|
7,5,5.5|
7,6,0.49|
7,7,0.64|
];
constraint_x6_x2=[
0,0,9.4|
0,1,3.1|
0,2,9.9|
0,3,9.3|
0,4,2.5|
0,5,1.7|
0,6,0.49|
0,7,5.4|
1,0,7.6|
1,1,0.59|
1,2,0.28|
1,3,3.4|
1,4,8.2|
1,5,9.5|
1,6,0.54|
1,7,3.2|
2,0,3.9|
2,1,1.4|
2,2,2.6|
2,3,6.7|
2,4,3.3|
2,5,1.1|
2,6,3.4|
2,7,0.85|
3,0,3|
3,1,1.2|
3,2,5.3|
3,3,6.6|
3,4,1.2|
3,5,9.3|
3,6,1.5|
3,7,0.0081|
4,0,4.8|
4,1,0.6|
4,2,9.8|
4,3,3.5|
4,4,5.5|
4,5,1.3|
4,6,4.1|
4,7,2.6|
5,0,4.6|
5,1,0.23|
5,2,3|
5,3,8.2|
5,4,0.76|
5,5,6.6|
5,6,4.2|
5,7,1.6|
6,0,0.47|
6,1,5.2|
6,2,4.3|
6,3,0.28|
6,4,9.3|
6,5,2|
6,6,0.7|
6,7,8.9|
7,0,0.056|
7,1,4.3|
7,2,9.5|
7,3,5|
7,4,0.18|
7,5,6.4|
7,6,9.7|
7,7,0.33|
];
constraint_x6_x5=[
0,0,8.9|
0,1,0.14|
0,2,4.8|
0,3,8.3|
0,4,8|
0,5,0.22|
0,6,9.1|
0,7,6.3|
1,0,9.3|
1,1,7.7|
1,2,8.7|
1,3,9.3|
1,4,2.8|
1,5,7|
1,6,9.5|
1,7,1.2|
2,0,9.1|
2,1,2.2|
2,2,4.8|
2,3,7.1|
2,4,8.3|
2,5,7.6|
2,6,5.4|
2,7,1.1|
3,0,7.4|
3,1,0.27|
3,2,3.7|
3,3,4|
3,4,6.9|
3,5,0.91|
3,6,8.7|
3,7,3|
4,0,4.3|
4,1,8.1|
4,2,3.6|
4,3,4.7|
4,4,2.4|
4,5,3.2|
4,6,7.2|
4,7,2.3|
5,0,8|
5,1,4.3|
5,2,7.1|
5,3,5|
5,4,5.3|
5,5,9.3|
5,6,6.6|
5,7,2.2|
6,0,3.8|
6,1,4.6|
6,2,0.79|
6,3,6.5|
6,4,9.5|
6,5,5.9|
6,6,1.3|
6,7,9.8|
7,0,0.19|
7,1,6.5|
7,2,1.7|
7,3,6.8|
7,4,8.8|
7,5,2.8|
7,6,0.31|
7,7,0.049|
];
constraint_x7_x3=[
0,0,5.5|
0,1,7|
0,2,8|
0,3,6.8|
0,4,0.22|
0,5,7.7|
0,6,8.8|
0,7,9.6|
1,0,4.1|
1,1,8.1|
1,2,6|
1,3,0.28|
1,4,0.4|
1,5,8.6|
1,6,9.2|
1,7,3.7|
2,0,5.4|
2,1,9.3|
2,2,5.5|
2,3,4|
2,4,5.5|
2,5,9.9|
2,6,6|
2,7,7.4|
3,0,3.5|
3,1,5.1|
3,2,5.8|
3,3,1.4|
3,4,1.9|
3,5,7.8|
3,6,3.5|
3,7,3.7|
4,0,3.3|
4,1,1|
4,2,3.5|
4,3,0.14|
4,4,0.61|
4,5,3.4|
4,6,4.9|
4,7,2.7|
5,0,4.1|
5,1,5.8|
5,2,2.8|
5,3,7.2|
5,4,1.5|
5,5,8.6|
5,6,7.3|
5,7,1.2|
6,0,9.7|
6,1,5.4|
6,2,2.5|
6,3,7.2|
6,4,7.1|
6,5,0.48|
6,6,8.1|
6,7,6.9|
7,0,8.3|
7,1,2.2|
7,2,5.4|
7,3,0.66|
7,4,0.035|
7,5,4.4|
7,6,2.5|
7,7,9.4|
];
constraint_x7_x6=[
0,0,0.91|
0,1,0.18|
0,2,2.5|
0,3,8|
0,4,7.5|
0,5,4|
0,6,1.2|
0,7,0.51|
1,0,9.3|
1,1,5.2|
1,2,0.14|
1,3,0.46|
1,4,2.1|
1,5,2.2|
1,6,3.8|
1,7,3.3|
2,0,8.2|
2,1,0.22|
2,2,2.8|
2,3,2.9|
2,4,0.49|
2,5,7.2|
2,6,6.9|
2,7,7.2|
3,0,1.1|
3,1,7.1|
3,2,1|
3,3,0.49|
3,4,6.9|
3,5,1.9|
3,6,8|
3,7,8|
4,0,3|
4,1,1.8|
4,2,6.9|
4,3,3|
4,4,8.6|
4,5,3.1|
4,6,2.3|
4,7,3.2|
5,0,3.2|
5,1,1.9|
5,2,5.6|
5,3,9.9|
5,4,3.1|
5,5,1.6|
5,6,8.9|
5,7,7.7|
6,0,5.4|
6,1,1.1|
6,2,7.2|
6,3,9.6|
6,4,1.4|
6,5,0.42|
6,6,8.8|
6,7,9.1|
7,0,9.7|
7,1,3.6|
7,2,1.7|
7,3,1.9|
7,4,4.7|
7,5,9.3|
7,6,0.98|
7,7,2.6|
];
constraint_x8_x4=[
0,0,1.8|
0,1,4.1|
0,2,9.3|
0,3,1.3|
0,4,0.4|
0,5,4.1|
0,6,6.5|
0,7,3|
1,0,9|
1,1,7.4|
1,2,1.4|
1,3,5.6|
1,4,1.4|
1,5,6|
1,6,6.5|
1,7,9.3|
2,0,1.2|
2,1,2.5|
2,2,5.2|
2,3,7.8|
2,4,2.2|
2,5,3.4|
2,6,3.7|
2,7,7.4|
3,0,6.7|
3,1,9.6|
3,2,7.9|
3,3,3.3|
3,4,0.86|
3,5,6.8|
3,6,3.4|
3,7,8.2|
4,0,7.1|
4,1,4.8|
4,2,6.5|
4,3,5.5|
4,4,9.2|
4,5,7.9|
4,6,6.6|
4,7,1.9|
5,0,8.3|
5,1,9.3|
5,2,6.7|
5,3,4|
5,4,8.4|
5,5,8.4|
5,6,3|
5,7,2.7|
6,0,3.1|
6,1,0.95|
6,2,0.86|
6,3,4.2|
6,4,4.4|
6,5,4.4|
6,6,5.8|
6,7,4.2|
7,0,9.3|
7,1,7.8|
7,2,8.3|
7,3,3.1|
7,4,4.1|
7,5,1.9|
7,6,5.5|
7,7,3.3|
];
constraint_x8_x7=[
0,0,8.8|
0,1,6.8|
0,2,4.2|
0,3,3.7|
0,4,9.2|
0,5,2.9|
0,6,7.9|
0,7,5.5|
1,0,2.5|
1,1,1.8|
1,2,1.9|
1,3,6.4|
1,4,4.4|
1,5,7.3|
1,6,7.1|
1,7,1.7|
2,0,9.7|
2,1,9.6|
2,2,2.8|
2,3,6.4|
2,4,2.9|
2,5,0.19|
2,6,2|
2,7,2.1|
3,0,8.1|
3,1,7.7|
3,2,1.2|
3,3,0.85|
3,4,4.1|
3,5,7.1|
3,6,5.8|
3,7,5.4|
4,0,6.3|
4,1,6.5|
4,2,2.3|
4,3,5.5|
4,4,7.1|
4,5,3.1|
4,6,0.56|
4,7,5.4|
5,0,4.9|
5,1,7.9|
5,2,5.8|
5,3,7.7|
5,4,6|
5,5,5.4|
5,6,1.5|
5,7,7.3|
6,0,1.5|
6,1,0.78|
6,2,9.3|
6,3,3.2|
6,4,0.94|
6,5,7.4|
6,6,6.4|
6,7,0.023|
7,0,1.7|
7,1,9.5|
7,2,5.2|
7,3,4.2|
7,4,5.4|
7,5,5.5|
7,6,9.9|
7,7,2.3|
];
constraint_x9_x5=[
0,0,2.9|
0,1,3.4|
0,2,7|
0,3,8|
0,4,7.3|
0,5,7.7|
0,6,2.7|
0,7,1.1|
1,0,7.4|
1,1,8|
1,2,1.6|
1,3,8.4|
1,4,4.9|
1,5,5.1|
1,6,2.9|
1,7,1.9|
2,0,5.4|
2,1,1|
2,2,9.2|
2,3,7.6|
2,4,8.1|
2,5,6.4|
2,6,8.3|
2,7,5.1|
3,0,3.6|
3,1,3.1|
3,2,8.5|
3,3,6.4|
3,4,2.5|
3,5,9.4|
3,6,0.89|
3,7,8.5|
4,0,9.2|
4,1,5.8|
4,2,0.24|
4,3,10|
4,4,0.19|
4,5,1.1|
4,6,4.3|
4,7,2.9|
5,0,4.1|
5,1,5.6|
5,2,4.9|
5,3,6.3|
5,4,7.6|
5,5,3.2|
5,6,3.7|
5,7,5.5|
6,0,1.6|
6,1,4.4|
6,2,5.2|
6,3,2.6|
6,4,4.4|
6,5,7.9|
6,6,8.7|
6,7,4.2|
7,0,5|
7,1,2.3|
7,2,4.2|
7,3,5|
7,4,3.7|
7,5,0.18|
7,6,9.2|
7,7,7.2|
];
constraint_x10_x6=[
0,0,5.1|
0,1,6.3|
0,2,6.8|
0,3,1.7|
0,4,9.9|
0,5,0.96|
0,6,4.5|
0,7,6.9|
1,0,1.9|
1,1,9.1|
1,2,6.2|
1,3,3.3|
1,4,9.2|
1,5,2.1|
1,6,7.2|
1,7,0.42|
2,0,3.7|
2,1,4.9|
2,2,5|
2,3,0.043|
2,4,1.7|
2,5,5.5|
2,6,7.4|
2,7,6.7|
3,0,8.7|
3,1,3.3|
3,2,5.4|
3,3,8|
3,4,7|
3,5,2.1|
3,6,8|
3,7,1.5|
4,0,2.9|
4,1,7.8|
4,2,4.3|
4,3,7.1|
4,4,7.3|
4,5,3.2|
4,6,1.5|
4,7,0.95|
5,0,1.5|
5,1,2.2|
5,2,5.7|
5,3,9.6|
5,4,7.9|
5,5,1.1|
5,6,1.5|
5,7,1|
6,0,5.6|
6,1,5.9|
6,2,9.4|
6,3,2.7|
6,4,2.1|
6,5,8.7|
6,6,2.8|
6,7,1.8|
7,0,1.8|
7,1,2.3|
7,2,2.8|
7,3,3.9|
7,4,4|
7,5,8.8|
7,6,8.5|
7,7,2|
];
constraint_x10_x9=[
0,0,7.9|
0,1,7.9|
0,2,6.9|
0,3,8.2|
0,4,7.7|
0,5,2.8|
0,6,4.9|
0,7,0.77|
1,0,4.3|
1,1,7.1|
1,2,3.2|
1,3,2|
1,4,7.3|
1,5,8.6|
1,6,8.1|
1,7,8.2|
2,0,2.1|
2,1,1.2|
2,2,6.7|
2,3,6.3|
2,4,0.45|
2,5,0.22|
2,6,5.7|
2,7,0.39|
3,0,8.1|
3,1,0.97|
3,2,8.1|
3,3,2.6|
3,4,4.3|
3,5,4.9|
3,6,0.078|
3,7,4.1|
4,0,0.99|
4,1,9.8|
4,2,1.6|
4,3,2.2|
4,4,7.3|
4,5,9.7|
4,6,2.7|
4,7,3.9|
5,0,6.8|
5,1,2.6|
5,2,1.6|
5,3,6.5|
5,4,8.5|
5,5,3.6|
5,6,6.2|
5,7,1.9|
6,0,2.6|
6,1,6.1|
6,2,7.7|
6,3,8.8|
6,4,5.6|
6,5,2.1|
6,6,4.2|
6,7,3.8|
7,0,6.1|
7,1,3.6|
7,2,6.8|
7,3,5|
7,4,0.41|
7,5,1.7|
7,6,8.4|
7,7,1.3|
];
constraint_x11_x7=[
0,0,3.5|
0,1,7.4|
0,2,8.8|
0,3,1|
0,4,3.8|
0,5,4.4|
0,6,7.8|
0,7,6.3|
1,0,4.1|
1,1,5.1|
1,2,3.6|
1,3,6.5|
1,4,7.9|
1,5,3|
1,6,9.1|
1,7,8.2|
2,0,1.3|
2,1,5.2|
2,2,7.4|
2,3,5.2|
2,4,2.3|
2,5,7.1|
2,6,6.3|
2,7,3.4|
3,0,7.1|
3,1,8.8|
3,2,4.9|
3,3,4|
3,4,6|
3,5,5.3|
3,6,5.3|
3,7,6.1|
4,0,9.3|
4,1,2.6|
4,2,2|
4,3,3.1|
4,4,4.2|
4,5,7.4|
4,6,2.6|
4,7,0.097|
5,0,7.8|
5,1,4|
5,2,3.1|
5,3,9.6|
5,4,0.47|
5,5,1.5|
5,6,7.8|
5,7,2.1|
6,0,0.32|
6,1,7.8|
6,2,7.4|
6,3,1.3|
6,4,9.5|
6,5,7.8|
6,6,8.7|
6,7,3.1|
7,0,8.2|
7,1,8.4|
7,2,4.4|
7,3,7.4|
7,4,0.62|
7,5,7.9|
7,6,6.1|
7,7,7.3|
];
constraint_x11_x10=[
0,0,6.7|
0,1,4|
0,2,3.1|
0,3,0.01|
0,4,6.4|
0,5,1.2|
0,6,6.9|
0,7,8.5|
1,0,4.8|
1,1,8.4|
1,2,4.9|
1,3,1.6|
1,4,2.9|
1,5,8.4|
1,6,2.7|
1,7,5.1|
2,0,6.4|
2,1,6.2|
2,2,7.8|
2,3,6.4|
2,4,8.7|
2,5,7.8|
2,6,7.9|
2,7,7.2|
3,0,7.4|
3,1,3.1|
3,2,7.1|
3,3,9.4|
3,4,4.9|
3,5,9.2|
3,6,4.4|
3,7,1.5|
4,0,9.8|
4,1,9.9|
4,2,1.5|
4,3,3.9|
4,4,5.4|
4,5,8.3|
4,6,3.3|
4,7,1.6|
5,0,4.4|
5,1,9.5|
5,2,8.1|
5,3,6.3|
5,4,0.69|
5,5,5|
5,6,7.2|
5,7,3.2|
6,0,8|
6,1,2.3|
6,2,9.9|
6,3,4|
6,4,6.5|
6,5,3.8|
6,6,3.2|
6,7,8.7|
7,0,5.2|
7,1,1.8|
7,2,1|
7,3,6.5|
7,4,8.7|
7,5,8.8|
7,6,2.6|
7,7,7.8|
];
constraint_x12_x8=[
0,0,2.6|
0,1,7.9|
0,2,7.5|
0,3,1.9|
0,4,7.4|
0,5,8.2|
0,6,2.9|
0,7,7.9|
1,0,5|
1,1,8.2|
1,2,4|
1,3,3.7|
1,4,0.1|
1,5,3.6|
1,6,2.4|
1,7,0.8|
2,0,0.2|
2,1,4.1|
2,2,7.7|
2,3,2.4|
2,4,5.6|
2,5,8.7|
2,6,7.4|
2,7,4.8|
3,0,4.9|
3,1,8.8|
3,2,0.36|
3,3,3.4|
3,4,1.7|
3,5,5.6|
3,6,5.6|
3,7,4.6|
4,0,8.4|
4,1,6.7|
4,2,8.8|
4,3,6.6|
4,4,8.6|
4,5,7.7|
4,6,4.8|
4,7,2.9|
5,0,1.7|
5,1,6.3|
5,2,0.38|
5,3,0.25|
5,4,7.3|
5,5,1.9|
5,6,7.9|
5,7,6.7|
6,0,8.2|
6,1,6.1|
6,2,4.8|
6,3,5.9|
6,4,8.3|
6,5,8.1|
6,6,0.12|
6,7,0.35|
7,0,9.6|
7,1,9.8|
7,2,7.3|
7,3,4.7|
7,4,7.7|
7,5,2|
7,6,8.3|
7,7,8.9|
];
constraint_x12_x11=[
0,0,8.5|
0,1,2.7|
0,2,6.1|
0,3,6.5|
0,4,2.4|
0,5,9.5|
0,6,8.4|
0,7,4.6|
1,0,9.7|
1,1,5.7|
1,2,1|
1,3,9.4|
1,4,6.1|
1,5,8.3|
1,6,8.9|
1,7,3.3|
2,0,3.9|
2,1,0.77|
2,2,4.6|
2,3,4.4|
2,4,6.7|
2,5,9.7|
2,6,8.3|
2,7,2.5|
3,0,8.7|
3,1,6.3|
3,2,3.7|
3,3,1.7|
3,4,9.3|
3,5,8.1|
3,6,8.5|
3,7,9.4|
4,0,2.8|
4,1,0.42|
4,2,0.2|
4,3,9.3|
4,4,6|
4,5,2|
4,6,4.3|
4,7,8.7|
5,0,1.8|
5,1,7.6|
5,2,4.8|
5,3,5.7|
5,4,2.8|
5,5,3.1|
5,6,0.77|
5,7,2|
6,0,0.38|
6,1,0.095|
6,2,0.031|
6,3,0.044|
6,4,1.2|
6,5,9.9|
6,6,9.4|
6,7,0.072|
7,0,6|
7,1,9.8|
7,2,2.9|
7,3,0.18|
7,4,0.65|
7,5,6.4|
7,6,3.1|
7,7,1.9|
];
constraint_x13_x9=[
0,0,7.8|
0,1,8.3|
0,2,6.4|
0,3,3|
0,4,8.8|
0,5,5.6|
0,6,10|
0,7,7.8|
1,0,1.8|
1,1,6.3|
1,2,1.8|
1,3,6.8|
1,4,6.4|
1,5,7.5|
1,6,4.9|
1,7,7.9|
2,0,1.6|
2,1,1.3|
2,2,7.5|
2,3,5.6|
2,4,1|
2,5,6.3|
2,6,4.1|
2,7,4.6|
3,0,1.8|
3,1,4.7|
3,2,9.4|
3,3,9|
3,4,0.046|
3,5,2.6|
3,6,7.6|
3,7,0.78|
4,0,9.4|
4,1,9.2|
4,2,2|
4,3,1.2|
4,4,8.5|
4,5,8.5|
4,6,0.52|
4,7,9.6|
5,0,9.1|
5,1,0.17|
5,2,7.4|
5,3,8.7|
5,4,7.4|
5,5,5.6|
5,6,5|
5,7,9.8|
6,0,3.4|
6,1,8.9|
6,2,3.5|
6,3,1.4|
6,4,7.2|
6,5,6.1|
6,6,8|
6,7,3.2|
7,0,7.7|
7,1,3.5|
7,2,5|
7,3,9.2|
7,4,9|
7,5,6.8|
7,6,0.63|
7,7,0.88|
];
constraint_x14_x10=[
0,0,3.4|
0,1,0.2|
0,2,4.5|
0,3,4.8|
0,4,1.3|
0,5,2.2|
0,6,5.1|
0,7,4.7|
1,0,1.3|
1,1,7|
1,2,0.028|
1,3,7|
1,4,7.7|
1,5,0.84|
1,6,0.67|
1,7,9.3|
2,0,7.6|
2,1,4.2|
2,2,9.4|
2,3,6.4|
2,4,7.7|
2,5,8|
2,6,7.2|
2,7,7.1|
3,0,9.4|
3,1,0.82|
3,2,6.3|
3,3,4.3|
3,4,7.8|
3,5,1.8|
3,6,2.5|
3,7,2|
4,0,2.8|
4,1,4.7|
4,2,2.3|
4,3,6.5|
4,4,1.4|
4,5,9|
4,6,8.8|
4,7,2.7|
5,0,5|
5,1,6.5|
5,2,1.4|
5,3,9|
5,4,1.1|
5,5,8.6|
5,6,2.6|
5,7,6.6|
6,0,7.6|
6,1,4.3|
6,2,5.2|
6,3,2.1|
6,4,6.8|
6,5,0.67|
6,6,7.2|
6,7,6.5|
7,0,7.7|
7,1,7|
7,2,3.6|
7,3,5.4|
7,4,9.9|
7,5,8.2|
7,6,0.66|
7,7,5.1|
];
constraint_x14_x13=[
0,0,2.7|
0,1,4.4|
0,2,9.1|
0,3,4.1|
0,4,8.8|
0,5,0.42|
0,6,1.7|
0,7,9.8|
1,0,6.3|
1,1,1.9|
1,2,7.5|
1,3,9.1|
1,4,7.6|
1,5,10|
1,6,8|
1,7,1.6|
2,0,4.8|
2,1,5.8|
2,2,3.2|
2,3,7.7|
2,4,0.1|
2,5,1.2|
2,6,1|
2,7,9.6|
3,0,1.5|
3,1,7.7|
3,2,7.5|
3,3,0.24|
3,4,0.31|
3,5,2.1|
3,6,7.8|
3,7,8.2|
4,0,9.3|
4,1,3.2|
4,2,0.24|
4,3,7.5|
4,4,3.1|
4,5,4|
4,6,0.28|
4,7,2.8|
5,0,2.7|
5,1,2|
5,2,8.7|
5,3,5.7|
5,4,7.1|
5,5,2.1|
5,6,6.6|
5,7,3.4|
6,0,0.73|
6,1,1.5|
6,2,2.3|
6,3,1.1|
6,4,3.5|
6,5,8.2|
6,6,2.2|
6,7,7.2|
7,0,7.3|
7,1,3.6|
7,2,9.1|
7,3,6.4|
7,4,3.4|
7,5,8.4|
7,6,1.8|
7,7,6.5|
];
constraint_x15_x11=[
0,0,3.7|
0,1,7.6|
0,2,6.5|
0,3,8.6|
0,4,3.7|
0,5,5.7|
0,6,4.6|
0,7,9.6|
1,0,0.37|
1,1,9.3|
1,2,3.3|
1,3,5.9|
1,4,3.2|
1,5,4.2|
1,6,6.3|
1,7,6.9|
2,0,9.6|
2,1,9.9|
2,2,4.7|
2,3,7.3|
2,4,3.1|
2,5,3.3|
2,6,2.3|
2,7,7.6|
3,0,4.6|
3,1,1.7|
3,2,5|
3,3,5.4|
3,4,6.8|
3,5,3.7|
3,6,8.2|
3,7,9.9|
4,0,4.2|
4,1,4.1|
4,2,6.7|
4,3,1|
4,4,7.1|
4,5,0.93|
4,6,9.8|
4,7,6|
5,0,0.31|
5,1,9.3|
5,2,4.2|
5,3,9.4|
5,4,2.7|
5,5,0.39|
5,6,5.2|
5,7,4.8|
6,0,8.5|
6,1,3.3|
6,2,6.3|
6,3,1.2|
6,4,5.4|
6,5,6.8|
6,6,3.4|
6,7,3.8|
7,0,6.7|
7,1,2.6|
7,2,8.3|
7,3,7|
7,4,4.5|
7,5,5.6|
7,6,2.7|
7,7,9.6|
];
constraint_x15_x14=[
0,0,1.6|
0,1,0.087|
0,2,0.74|
0,3,7.6|
0,4,2.8|
0,5,0.56|
0,6,7.8|
0,7,6.8|
1,0,9.3|
1,1,8.2|
1,2,9.1|
1,3,9.3|
1,4,6.1|
1,5,9.9|
1,6,5.5|
1,7,2.9|
2,0,5|
2,1,7.5|
2,2,4.4|
2,3,0.17|
2,4,1.4|
2,5,6.1|
2,6,3.9|
2,7,5.4|
3,0,7.4|
3,1,8.8|
3,2,6.3|
3,3,2.2|
3,4,4.8|
3,5,4.1|
3,6,4|
3,7,8.9|
4,0,1.6|
4,1,8.1|
4,2,6.6|
4,3,3.6|
4,4,1.7|
4,5,4|
4,6,5.7|
4,7,9.4|
5,0,9.7|
5,1,6.6|
5,2,5.8|
5,3,9.7|
5,4,7.1|
5,5,7|
5,6,7.8|
5,7,0.67|
6,0,4.4|
6,1,2.5|
6,2,9.1|
6,3,7.3|
6,4,2.3|
6,5,1.8|
6,6,1|
6,7,9.4|
7,0,1.8|
7,1,6.2|
7,2,7.3|
7,3,1.6|
7,4,2.9|
7,5,7.7|
7,6,3.5|
7,7,5.3|
];
constraint_x16_x12=[
0,0,0.042|
0,1,9.7|
0,2,2.9|
0,3,4.4|
0,4,6.7|
0,5,2.8|
0,6,8.4|
0,7,0.81|
1,0,4.3|
1,1,9.9|
1,2,9|
1,3,6.1|
1,4,1.2|
1,5,9.6|
1,6,9|
1,7,4.5|
2,0,6.9|
2,1,3.5|
2,2,7.7|
2,3,8.7|
2,4,4|
2,5,6.6|
2,6,7.9|
2,7,5|
3,0,8.3|
3,1,7.8|
3,2,6.7|
3,3,3.7|
3,4,8.3|
3,5,6.1|
3,6,7.9|
3,7,4.6|
4,0,2.4|
4,1,4|
4,2,0.65|
4,3,1.7|
4,4,3.1|
4,5,4.7|
4,6,2.5|
4,7,7.7|
5,0,0.9|
5,1,7.8|
5,2,2.1|
5,3,8.5|
5,4,1|
5,5,5.8|
5,6,9.3|
5,7,2.6|
6,0,6.7|
6,1,0.51|
6,2,5.2|
6,3,3|
6,4,0.46|
6,5,5.1|
6,6,6.2|
6,7,0.96|
7,0,2.9|
7,1,4.4|
7,2,2.3|
7,3,9.9|
7,4,9.8|
7,5,6|
7,6,1.6|
7,7,8.8|
];
constraint_x16_x15=[
0,0,8.1|
0,1,1.6|
0,2,4.4|
0,3,6.6|
0,4,8|
0,5,4.7|
0,6,3|
0,7,5.4|
1,0,0.52|
1,1,1.9|
1,2,6.6|
1,3,7.7|
1,4,9.8|
1,5,2.4|
1,6,3.3|
1,7,7.9|
2,0,4.9|
2,1,1.7|
2,2,6.2|
2,3,0.43|
2,4,0.19|
2,5,5.2|
2,6,2.2|
2,7,6.2|
3,0,4.3|
3,1,9.7|
3,2,9.2|
3,3,1.6|
3,4,6.2|
3,5,0.77|
3,6,7.4|
3,7,5.9|
4,0,0.97|
4,1,1.2|
4,2,2.8|
4,3,8.8|
4,4,0.14|
4,5,4.9|
4,6,1.7|
4,7,2.2|
5,0,5.8|
5,1,4.3|
5,2,7.1|
5,3,9.4|
5,4,0.49|
5,5,4.8|
5,6,7.9|
5,7,9.7|
6,0,8|
6,1,7.6|
6,2,0.13|
6,3,3.9|
6,4,9.1|
6,5,6|
6,6,6.9|
6,7,2.3|
7,0,6.2|
7,1,9.3|
7,2,2.6|
7,3,0.59|
7,4,6.8|
7,5,9.4|
7,6,1.2|
7,7,7.8|
];
constraint_x17_x13=[
0,0,5.4|
0,1,0.033|
0,2,8.6|
0,3,6.8|
0,4,0.078|
0,5,9.2|
0,6,5.9|
0,7,4.9|
1,0,4|
1,1,0.5|
1,2,6.3|
1,3,8.4|
1,4,8.2|
1,5,5.9|
1,6,3.4|
1,7,5.7|
2,0,3.5|
2,1,1.8|
2,2,5.5|
2,3,3.6|
2,4,2.6|
2,5,8.3|
2,6,6.1|
2,7,6.1|
3,0,6.1|
3,1,1.6|
3,2,2|
3,3,5.4|
3,4,6.2|
3,5,8.6|
3,6,1.5|
3,7,4.3|
4,0,9.9|
4,1,7.8|
4,2,2.4|
4,3,3.2|
4,4,2.2|
4,5,8.7|
4,6,3.8|
4,7,0.36|
5,0,8.2|
5,1,8.2|
5,2,5.8|
5,3,8.1|
5,4,2.8|
5,5,0.7|
5,6,8.6|
5,7,1.5|
6,0,10|
6,1,0.17|
6,2,8.6|
6,3,9.5|
6,4,0.75|
6,5,9|
6,6,4.6|
6,7,4.5|
7,0,4.3|
7,1,9.7|
7,2,9.9|
7,3,9.6|
7,4,1.9|
7,5,9.4|
7,6,5.2|
7,7,7.6|
];
constraint_x18_x14=[
0,0,2.9|
0,1,4.7|
0,2,7.4|
0,3,8.3|
0,4,6.5|
0,5,7.7|
0,6,8.8|
0,7,3.4|
1,0,5.8|
1,1,0.71|
1,2,5.8|
1,3,0.68|
1,4,7.2|
1,5,4.6|
1,6,0.76|
1,7,3.2|
2,0,2|
2,1,4|
2,2,5.4|
2,3,5.5|
2,4,6.9|
2,5,0.16|
2,6,2.5|
2,7,3.2|
3,0,3.5|
3,1,9.3|
3,2,4.8|
3,3,1.7|
3,4,0.81|
3,5,9.1|
3,6,7.7|
3,7,0.63|
4,0,2.5|
4,1,4.7|
4,2,2.4|
4,3,6|
4,4,0.82|
4,5,1.3|
4,6,4.1|
4,7,6.7|
5,0,6.4|
5,1,8.3|
5,2,3.1|
5,3,3.9|
5,4,4.1|
5,5,9.7|
5,6,9.1|
5,7,3.3|
6,0,9.4|
6,1,8.6|
6,2,7|
6,3,0.91|
6,4,4.8|
6,5,8.2|
6,6,7.7|
6,7,8.8|
7,0,1.1|
7,1,9.2|
7,2,2.5|
7,3,4.9|
7,4,7.5|
7,5,1.2|
7,6,5.2|
7,7,3.9|
];
constraint_x1_y1=[
0,0,9.8|
0,1,1.9|
0,2,4.8|
0,3,4.6|
0,4,0.56|
0,5,2.5|
0,6,7.7|
0,7,1.1|
1,0,9|
1,1,9.3|
1,2,2.4|
1,3,1.5|
1,4,2.9|
1,5,1.4|
1,6,3|
1,7,4.8|
2,0,7.2|
2,1,7.6|
2,2,8.9|
2,3,2.2|
2,4,1.4|
2,5,4.4|
2,6,3.8|
2,7,4.5|
3,0,1.7|
3,1,5.5|
3,2,8|
3,3,8.4|
3,4,2.3|
3,5,4.8|
3,6,0.05|
3,7,7.2|
4,0,1.9|
4,1,5.6|
4,2,3.5|
4,3,5.7|
4,4,0.4|
4,5,9.1|
4,6,1.9|
4,7,7.1|
5,0,1.5|
5,1,4.2|
5,2,3.2|
5,3,2.6|
5,4,1.6|
5,5,0.79|
5,6,6.5|
5,7,7|
6,0,5.8|
6,1,1.2|
6,2,7.3|
6,3,4.3|
6,4,8.2|
6,5,4.1|
6,6,7.5|
6,7,2.3|
7,0,4.3|
7,1,3.3|
7,2,5.3|
7,3,4.7|
7,4,6.3|
7,5,7.4|
7,6,8.2|
7,7,9.7|
];
constraint_x2_y2=[
0,0,9.5|
0,1,1|
0,2,8.3|
0,3,6.1|
0,4,5.9|
0,5,3.6|
0,6,2|
0,7,4.4|
1,0,8.2|
1,1,1.7|
1,2,0.52|
1,3,2.8|
1,4,1.4|
1,5,4|
1,6,3.9|
1,7,1.6|
2,0,5.9|
2,1,4.9|
2,2,9.3|
2,3,6.3|
2,4,6.8|
2,5,2.5|
2,6,1.6|
2,7,5.9|
3,0,6.6|
3,1,3|
3,2,9.3|
3,3,3.6|
3,4,8.3|
3,5,9.5|
3,6,2.6|
3,7,6.2|
4,0,8.6|
4,1,2.3|
4,2,5.6|
4,3,0.57|
4,4,6.3|
4,5,9.4|
4,6,0.44|
4,7,8.2|
5,0,5.7|
5,1,8.7|
5,2,8.8|
5,3,9.7|
5,4,6.3|
5,5,7|
5,6,9.4|
5,7,9.3|
6,0,2.3|
6,1,4|
6,2,8.4|
6,3,7.1|
6,4,9.8|
6,5,4.4|
6,6,5|
6,7,4.7|
7,0,4.3|
7,1,6|
7,2,1.8|
7,3,5.9|
7,4,2.6|
7,5,8.9|
7,6,3|
7,7,5|
];
constraint_x3_y3=[
0,0,4.3|
0,1,4.4|
0,2,9|
0,3,5.8|
0,4,7.1|
0,5,9|
0,6,2.7|
0,7,2.2|
1,0,5.7|
1,1,6.9|
1,2,7|
1,3,8.5|
1,4,3|
1,5,4|
1,6,7.8|
1,7,0.54|
2,0,3.3|
2,1,0.27|
2,2,8.4|
2,3,9.4|
2,4,1.4|
2,5,3.7|
2,6,8.1|
2,7,9.2|
3,0,0.85|
3,1,3.5|
3,2,0.013|
3,3,2.6|
3,4,3.5|
3,5,5.1|
3,6,8.3|
3,7,1.5|
4,0,4.7|
4,1,9.7|
4,2,8.6|
4,3,3.3|
4,4,0.37|
4,5,8.1|
4,6,7.1|
4,7,3|
5,0,3.4|
5,1,6|
5,2,7.3|
5,3,6.6|
5,4,2.4|
5,5,0.95|
5,6,1.6|
5,7,9.3|
6,0,2.1|
6,1,4.4|
6,2,8.9|
6,3,2.6|
6,4,0.2|
6,5,0.79|
6,6,2.5|
6,7,4.4|
7,0,0.61|
7,1,8.8|
7,2,1.9|
7,3,8|
7,4,6.1|
7,5,1.3|
7,6,4.7|
7,7,2.7|
];
constraint_x4_y4=[
0,0,1.6|
0,1,9|
0,2,7.4|
0,3,0.69|
0,4,8.4|
0,5,0.39|
0,6,5.9|
0,7,5.2|
1,0,9.2|
1,1,2.9|
1,2,3.4|
1,3,3.3|
1,4,2.7|
1,5,9.3|
1,6,7.4|
1,7,2.4|
2,0,9.2|
2,1,8.9|
2,2,6.8|
2,3,2.8|
2,4,8.1|
2,5,8.9|
2,6,8.9|
2,7,7.7|
3,0,4.8|
3,1,2.3|
3,2,7.7|
3,3,3.5|
3,4,5|
3,5,7.9|
3,6,2|
3,7,0.72|
4,0,6.7|
4,1,0.37|
4,2,9.7|
4,3,4.2|
4,4,2|
4,5,2.4|
4,6,8.5|
4,7,3.8|
5,0,4.5|
5,1,7.8|
5,2,1.3|
5,3,8.9|
5,4,8.6|
5,5,7.8|
5,6,0.4|
5,7,1.9|
6,0,9.5|
6,1,2.6|
6,2,0.92|
6,3,8.1|
6,4,8.8|
6,5,2.6|
6,6,6|
6,7,2.2|
7,0,4.7|
7,1,3.2|
7,2,5.1|
7,3,4.2|
7,4,2.6|
7,5,3.3|
7,6,1.3|
7,7,9|
];
constraint_x5_y5=[
0,0,0.15|
0,1,1.5|
0,2,7|
0,3,7.7|
0,4,4.4|
0,5,5.5|
0,6,0.91|
0,7,9.8|
1,0,7.6|
1,1,0.52|
1,2,8.2|
1,3,9.4|
1,4,2.8|
1,5,7.2|
1,6,8.3|
1,7,8|
2,0,5|
2,1,3.9|
2,2,5.1|
2,3,2.7|
2,4,4.5|
2,5,3.7|
2,6,3.3|
2,7,2.4|
3,0,4.2|
3,1,1.8|
3,2,0.52|
3,3,3.3|
3,4,9.9|
3,5,6.5|
3,6,3.2|
3,7,7.2|
4,0,2|
4,1,7.1|
4,2,5.2|
4,3,5.5|
4,4,8.2|
4,5,5.5|
4,6,7.6|
4,7,2.3|
5,0,0.82|
5,1,0.66|
5,2,5.4|
5,3,4|
5,4,1.4|
5,5,0.85|
5,6,6.8|
5,7,4.4|
6,0,7.8|
6,1,5|
6,2,6.1|
6,3,0.22|
6,4,8.5|
6,5,6|
6,6,7.7|
6,7,8.3|
7,0,6.1|
7,1,5.6|
7,2,4.2|
7,3,9.5|
7,4,5.4|
7,5,7.4|
7,6,5.3|
7,7,7.8|
];
constraint_x6_y6=[
0,0,0.091|
0,1,6|
0,2,5.6|
0,3,1.8|
0,4,7.7|
0,5,0.59|
0,6,0.5|
0,7,5.6|
1,0,6.1|
1,1,6.7|
1,2,6|
1,3,6.8|
1,4,1.5|
1,5,8.4|
1,6,8.8|
1,7,3|
2,0,5.2|
2,1,8.1|
2,2,0.35|
2,3,9.6|
2,4,9.6|
2,5,1.6|
2,6,2.7|
2,7,2.4|
3,0,4.2|
3,1,1.5|
3,2,0.13|
3,3,8.9|
3,4,0.18|
3,5,0.23|
3,6,0.98|
3,7,3.3|
4,0,9.8|
4,1,6.4|
4,2,9.3|
4,3,0.9|
4,4,5.6|
4,5,5.5|
4,6,2.8|
4,7,7.5|
5,0,2.4|
5,1,3.9|
5,2,9.4|
5,3,2.2|
5,4,2.3|
5,5,1.2|
5,6,9.1|
5,7,1.8|
6,0,7.1|
6,1,4.4|
6,2,5.1|
6,3,9.2|
6,4,5.8|
6,5,9.9|
6,6,3.2|
6,7,0.66|
7,0,1.6|
7,1,6.3|
7,2,8.1|
7,3,9.4|
7,4,9.7|
7,5,6|
7,6,6.9|
7,7,2.6|
];
constraint_x7_y7=[
0,0,3.6|
0,1,8.6|
0,2,1.4|
0,3,6.2|
0,4,1.8|
0,5,6.6|
0,6,1.3|
0,7,5.2|
1,0,1.2|
1,1,8.7|
1,2,2.2|
1,3,0.8|
1,4,9.7|
1,5,0.55|
1,6,9.2|
1,7,9.1|
2,0,4.8|
2,1,7.1|
2,2,10|
2,3,4.7|
2,4,9.5|
2,5,5.1|
2,6,4.5|
2,7,2.8|
3,0,1|
3,1,7.5|
3,2,3.4|
3,3,9.9|
3,4,0.22|
3,5,8.7|
3,6,8.3|
3,7,3.7|
4,0,3.1|
4,1,0.9|
4,2,6.6|
4,3,3.5|
4,4,5.8|
4,5,8.4|
4,6,2.5|
4,7,5.2|
5,0,5.3|
5,1,1.9|
5,2,3.8|
5,3,7.9|
5,4,7.4|
5,5,8.3|
5,6,5.3|
5,7,0.68|
6,0,4.8|
6,1,7.7|
6,2,3.7|
6,3,8.4|
6,4,9.2|
6,5,4.7|
6,6,6.5|
6,7,2.2|
7,0,1.5|
7,1,7.7|
7,2,9.8|
7,3,5.4|
7,4,0.89|
7,5,0.87|
7,6,8.3|
7,7,3.1|
];
constraint_x8_y8=[
0,0,6.6|
0,1,5.4|
0,2,3.8|
0,3,4.7|
0,4,5.5|
0,5,2.7|
0,6,3.5|
0,7,8.7|
1,0,7.1|
1,1,0.61|
1,2,5.4|
1,3,1.4|
1,4,7.3|
1,5,2.9|
1,6,3.4|
1,7,0.94|
2,0,6.7|
2,1,4.9|
2,2,8.5|
2,3,8.9|
2,4,6|
2,5,3.1|
2,6,3.3|
2,7,4.1|
3,0,7.1|
3,1,6.1|
3,2,0.56|
3,3,1.7|
3,4,7.3|
3,5,4.4|
3,6,0.41|
3,7,0.86|
4,0,6.2|
4,1,4.1|
4,2,5.9|
4,3,0.5|
4,4,2.5|
4,5,2.2|
4,6,1.9|
4,7,5.6|
5,0,8.2|
5,1,1.6|
5,2,4.7|
5,3,7.7|
5,4,9.2|
5,5,6.1|
5,6,0.41|
5,7,9.4|
6,0,8.9|
6,1,4.5|
6,2,6.7|
6,3,3.3|
6,4,4.5|
6,5,3|
6,6,9.4|
6,7,0.99|
7,0,0.37|
7,1,9.3|
7,2,2.5|
7,3,1.5|
7,4,5.8|
7,5,1.6|
7,6,3.3|
7,7,0.12|
];
initial_distribution_y1=[0.2,0.074,0.1,0.18,0.1,0.19,0.13,0.027];
initial_distribution_y2=[0.11,0.24,0.065,0.072,0.22,0.27,0.0078,0.016];
initial_distribution_y3=[0.1,0.046,0.15,0.19,0.058,0.38,0.032,0.04];
initial_distribution_y4=[0.12,0.14,0.11,0.21,0.071,0.16,0.048,0.14];
initial_distribution_y5=[0.072,0.15,0.18,0.031,0.2,0.18,0.17,0.026];
initial_distribution_y6=[0.047,0.26,0.16,0.082,0.18,0.091,0.027,0.15];
initial_distribution_y7=[0.094,0.15,0.017,0.19,0.17,0.07,0.24,0.072];
initial_distribution_y8=[0.11,0.036,0.11,0.13,0.094,0.11,0.19,0.23];
transition_y1=[
0.28,0.039,0.28,0.061,0.047,0.039,0.13,0.12|
0.095,0.12,0.036,0.078,0.17,0.22,0.21,0.071|
0.064,0.18,0.034,0.21,0.052,0.18,0.062,0.22|
0.1,0.079,0.22,0.15,0.17,0.13,0.1,0.057|
0.044,0.22,0.19,0.27,0.07,0.09,0.078,0.039|
0.047,0.2,0.022,0.19,0.017,0.057,0.21,0.25|
0.016,0.17,0.24,0.2,0.11,0.04,0.21,0.019|
0.2,0.22,0.28,0.033,0.048,0.14,0.059,0.021|
];
transition_y2=[
0.19,0.016,0.22,0.01,0.076,0.22,0.19,0.067|
0.15,0.23,0.0085,0.28,0.078,0.12,0.014,0.12|
0.14,0.11,0.11,0.2,0.17,0.077,0.028,0.16|
0.05,0.16,0.058,0.24,0.077,0.22,0.082,0.11|
0.089,0.14,0.19,0.14,0.19,0.089,0.13,0.04|
0.19,0.19,0.18,0.008,0.2,0.023,0.0035,0.2|
0.17,0.16,0.13,0.03,0.03,0.2,0.17,0.11|
0.12,0.16,0.24,0.19,0.041,0.01,0.08,0.15|
];
transition_y3=[
0.17,0.015,0.16,0.0044,0.15,0.17,0.15,0.18|
0.19,0.066,0.064,0.063,0.2,0.21,0.031,0.17|
0.14,0.14,0.082,0.21,0.078,0.076,0.097,0.17|
0.11,0.036,0.062,0.2,0.19,0.22,0.062,0.12|
0.2,0.071,0.062,0.27,0.19,0.072,0.0034,0.12|
0.13,0.025,0.062,0.28,0.1,0.17,0.16,0.073|
0.17,0.12,0.14,0.098,0.079,0.021,0.19,0.18|
0.12,0.18,0.044,0.02,0.16,0.14,0.14,0.2|
];
transition_y4=[
0.037,0.25,0.086,0.14,0.098,0.088,0.17,0.13|
0.028,0.087,0.027,0.26,0.11,0.17,0.25,0.064|
0.25,0.017,0.22,0.051,0.18,0.085,0.004,0.21|
0.16,0.11,0.031,0.078,0.15,0.15,0.16,0.16|
0.093,0.23,0.12,0.05,0.13,0.12,0.029,0.22|
0.088,0.2,0.2,0.022,0.099,0.14,0.19,0.058|
0.31,0.057,0.02,0.1,0.2,0.035,0.087,0.19|
0.088,0.042,0.18,0.14,0.013,0.17,0.16,0.2|
];
transition_y5=[
0.21,0.14,0.16,0.14,0.13,0.096,0.053,0.068|
0.074,0.25,0.091,0.071,0.0084,0.2,0.29,0.019|
0.24,0.22,0.0075,0.012,0.27,0.055,0.019,0.18|
0.051,0.15,0.015,0.29,0.089,0.29,0.018,0.099|
0.2,0.18,0.0098,0.0074,0.19,0.18,0.0074,0.22|
0.25,0.13,0.022,0.051,0.2,0.089,0.054,0.2|
0.27,0.29,0.038,0.029,0.039,0.23,0.014,0.097|
0.18,0.053,0.018,0.098,0.044,0.081,0.36,0.17|
];
transition_y6=[
0.068,0.15,0.038,0.099,0.087,0.17,0.2,0.2|
0.12,0.16,0.11,0.13,0.1,0.13,0.086,0.17|
0.18,0.2,0.11,0.13,0.09,0.024,0.18,0.087|
0.18,0.16,0.15,0.15,0.016,0.16,0.054,0.13|
0.16,0.094,0.21,0.09,0.059,0.23,0.011,0.14|
0.065,0.2,0.049,0.19,0.13,0.18,0.13,0.063|
0.14,0.037,0.085,0.067,0.24,0.16,0.17,0.11|
0.0072,0.12,0.19,0.0051,0.052,0.27,0.13,0.22|
];
transition_y7=[
0.1,0.18,0.065,0.026,0.18,0.24,0.12,0.08|
0.072,0.15,0.1,0.2,0.17,0.089,0.18,0.041|
0.1,0.12,0.1,0.087,0.036,0.25,0.14,0.16|
0.14,0.16,0.089,0.068,0.2,0.11,0.093,0.14|
0.1,0.16,0.16,0.18,0.038,0.17,0.077,0.11|
0.12,0.14,0.15,0.14,0.11,0.13,0.068,0.14|
0.16,0.16,0.092,0.18,0.11,0.13,0.12,0.045|
0.27,0.066,0.13,0.19,0.011,0.21,0.087,0.036|
];
transition_y8=[
0.041,0.068,0.12,0.17,0.14,0.17,0.17,0.12|
0.16,0.072,0.16,0.016,0.02,0.13,0.23,0.2|
0.09,0.029,0.11,0.22,0.031,0.2,0.14,0.19|
0.16,0.27,0.28,0.056,0.028,0.023,0.12,0.054|
0.021,0.16,0.17,0.025,0.048,0.18,0.19,0.21|
0.0094,0.15,0.17,0.013,0.13,0.21,0.16,0.16|
0.09,0.014,0.049,0.2,0.16,0.091,0.24,0.16|
0.16,0.16,0.067,0.11,0.14,0.14,0.14,0.083|
];
